(declare-const x Real)
(declare-const z Real)
(declare-const y Real)
(assert (>= (* (* x y) z) 1))
(assert (and (< 0 x) (and (< 0 y) (< 0 z))))
(assert (not (>= (+ (+ (/ (+ (^ x 5) (- (^ x 2))) (+ (+ (^ x 5) (^ y 2)) (^ z 2))) (/ (+ (^ y 5) (- (^ y 2))) (+ (+ (^ x 2) (^ y 5)) (^ z 2)))) (/ (+ (^ z 5) (- (^ z 2))) (+ (+ (^ x 2) (^ y 2)) (^ z 5)))) 0)))
(check-sat)
(get-model)
(exit)